43 114
6 11 18 20 32 35
10 14 27
3 4 16 21 22 35
2 5 19 26 30 31 38
2 14 18 27 34 35 41
3 8 11 12 21 24 30 31 36 42
0 12 14 24 25 32
14 21 32 34
5 12 16 21 29 40
10 36
1 9 11 33
0 5 10 15 25 27 35 42
5 6 8 42
15 41
1 4 6 7 20 26
11 13 16 21 22 28 30 37
2 8 15 33 37 38
18 26 30 34
0 4 17 20 42
3 23 24 25 27 31 36
0 14 18 22 25 30 31 40
2 5 7 8 15 24 25 31
2 15 20 30 31 40
19 33 34 40 42
5 6 19 21 29 42
6 11 19 20 21
3 14 17 27 31 38
1 4 11 19 26
15 34
8 24
3 5 15 17 20 22 38 39
3 5 19 20 21 22 26
0 6 7 40
10 16 23
4 7 17 23 28 39
0 2 4 11 40
5 9 19 37
15 16 36 38
3 16 26 30 37
30 34
8 20 22 23 32 35 41
4 13 40
5 11 12 18 23 24
